(set-logic HORN)
(declare-fun rec_array_insert_sort@summary ((Array Int Int) Int Int ) Bool)
(declare-fun rec_array_insert_sort@pre ((Array Int Int) Int Int ) Bool)
(assert (forall ((array@0 (Array Int Int))(.array!size@0 Int)(N@0 Int)) (=> (and (> |N@0| 0) (rec_array_insert_sort@pre |array@0| |.array!size@0| |N@0|)) (rec_array_insert_sort@pre |array@0| |.array!size@0| (- |N@0| 1)))))
(assert (forall ((N@0 Int)(array@0 (Array Int Int))) (=> (> |N@0| 0) (rec_array_insert_sort@pre |array@0| |N@0| (- |N@0| 1)))))
(assert (forall ((N@0 Int)(array@0 (Array Int Int))) (=> (and (rec_array_insert_sort@summary |array@0| |N@0| (- |N@0| 1)) (rec_array_insert_sort@pre |array@0| |N@0| (- |N@0| 1)) (> |N@0| 0) (not (forall ((k@0 Int)(l@0 Int)) (=> (and (<= 0 |k@0|) (< |k@0| (- |N@0| 1))) (=> (and (<= (+ |k@0| 1) |l@0|) (< |l@0| |N@0|)) (<= (select |array@0| |k@0|) (select |array@0| |l@0|))))))) false)))
(assert (forall ((array@0 (Array Int Int))(.array!size@0 Int)(N@0 Int)) (=> (and (rec_array_insert_sort@summary |array@0| |.array!size@0| (- |N@0| 1)) (rec_array_insert_sort@pre |array@0| |.array!size@0| (- |N@0| 1)) (rec_array_insert_sort@pre |array@0| |.array!size@0| |N@0|) (> |N@0| 0) (forall ((k@0 Int)(l@0 Int)) (=> (and (<= 0 |k@0|) (<= |k@0| (- |N@0| 1))) (=> (and (<= (+ |k@0| 1) |l@0|) (<= |l@0| |N@0|)) (<= (select |array@0| |k@0|) (select |array@0| |l@0|)))))) (rec_array_insert_sort@summary |array@0| |.array!size@0| |N@0|))))
(assert (forall ((array@0 (Array Int Int))(.array!size@0 Int)(N@0 Int)) (=> (and (not (> |N@0| 0)) (rec_array_insert_sort@pre |array@0| |.array!size@0| |N@0|)) (rec_array_insert_sort@summary |array@0| |.array!size@0| |N@0|))))
(check-sat)